; benchmark generated from python API
(set-info :status unknown)
(declare-datatypes ((IntState 0)) (((Mk1 (val1 Int)) (Mk2 (val2 Int)))))
 (declare-fun c_main_~j~6 () Int)
(declare-fun c_main_~k~6 () Int)
(declare-fun c_main_~i~6 () Int)
(assert
 (let (($x170 (exists ((v_nnf_30_st IntState) (val!148 Int) )(let ((?x56 (val2 v_nnf_30_st)))
 (let (($x179 (<= ?x56 3)))
 (let (($x125 (and (<= (+ ?x56 1) c_main_~k~6) $x179 (<= c_main_~j~6 (+ (* 2 ?x56) 1)))))
 (let (($x52 (not (= v_nnf_30_st (Mk1 val!148)))))
 (and $x52 $x125))))))
 ))
 (let (($x132 (<= c_main_~j~6 (+ (* 2 c_main_~i~6) 1))))
 (let (($x136 (<= c_main_~i~6 3)))
 (let ((?x42 (* 2 c_main_~i~6)))
 (let (($x7 (<= c_main_~j~6 ?x42)))
 (let (($x10 (exists ((v_nnf_34 Int) )(let (($x115 (<= c_main_~j~6 (+ (* 2 v_nnf_34) 1))))
 (let (($x22 (<= v_nnf_34 3)))
 (and (<= (+ v_nnf_34 3) c_main_~k~6) $x22 $x115))))
 ))
 (and (and $x7 $x136 $x132 $x10) (not (and $x7 $x136 $x132 $x170))))))))))
(check-sat)
